\ LP format - for model browsing. Use MPS format to capture full model detail.
Maximize
  10 x_1 + 5 x_2 + 4 x_3 + 3 x_4 + 3 x_5 + 6 x_6 + 2 x_7 + 5 x_8 + 4 x_9
   + 2 x_10
Subject To
 C_1: 9 x_1 + 8 x_2 + 3 x_3 + 9 x_4 + 8 x_10 <= 18
 C_2: 2 x_1 + 6 x_2 + 5 x_4 + 8 x_7 + 2 x_8 <= 11
 C_3: 8 x_1 + 5 x_2 + 10 x_4 + 5 x_6 + 8 x_7 + 7 x_8 + 2 x_9 + 10 x_10
   <= 27
 C_4: 10 x_3 + 6 x_4 + x_5 + 3 x_7 + 4 x_8 + 9 x_9 <= 16
 C_5: 5 x_4 + 4 x_6 + 2 x_8 <= 5
 C_6: 9 x_2 + 8 x_7 <= 8
 C_7: 8 x_2 + 5 x_3 + 6 x_4 + 8 x_6 + 9 x_10 <= 18
 C_8: 2 x_1 + x_5 + 8 x_6 <= 5
 C_9: 8 x_1 + 3 x_2 + 10 x_5 + 2 x_6 + 7 x_7 + 6 x_8 <= 18
 C_10: x_1 + 6 x_6 + 3 x_8 + 8 x_9 + 8 x_10 <= 13
Bounds
Binaries
 x_1 x_2 x_3 x_4 x_5 x_6 x_7 x_8 x_9 x_10
End
